5 5
7 1 4 5 1 4 6 5 5 12 2 3 1 4 3 20 4 14 5 1 11 2 18 5 6 4 11 3 2 1 1 6 4 1 2 3 8 2 2 4 13 2 1 8 2 16
8 1 1 5 1 3 13 3 5 11 1 20 3 4 3 1 9 2 12 4 18 2 4 14 3 2 2 4 10 2 10 3 5 5 3 9 2 4 2 2 2 4 9
7 5 2 16 3 5 4 3 5 16 1 3 3 2 13 5 17 4 7 4 2 16 5 17 4 16 3 11 5 2 6 1 2 4 5 3 14 5 8 2 1 5 2 6 5 4 7 5 14 1 12 3 6 2 11 3 4 14 3 3 2 15
4 3 1 13 4 9 5 17 1 4 10 5 4 5 1 14 2 17 5 10 3 9 5 5 14 3 16 2 16 1 20 4 8
6 1 5 11 4 4 15 3 11 5 4 2 3 3 5 10 2 8 1 8 1 1 17 5 1 15 5 14 2 19 4 19 3 3 2 3 2 2 20